M+/Instances/S1-5-M+/S1-5-5-1-l-M+.txt
     100       5    0.05
       1       3       1       3       1      15       4      13      12       7       3
       2       2       1       3       1      12       5      11      10       6       3
       3       1       1       2       2      10      12      15      16      14       2
       2       1       1       1       1       7       0      11       3       5       2
       3       3       3       1       2      11       5      10      13      13       2
       3       1       2       1       3       1       1      10      14      13       2
       2       3       2       2       3      14      16      11      16       2       3
       1       3       3       2       1      11      16      16      12       6       2
       2       1       2       2       1       4       9      11      10      16       2
       3       1       1       1       1       5       7       5       1      16       3
       1       3       2       2       2       9      14       1       7       9       2
       2       3       2       1       1       7      10       4       5      14       2
       3       1       2       2       3       8      15       0       4      13       2
       2       3       1       3       2      14      14       6      11      10       2
       2       1       2       2       1      10       1       5      15       7       3
       3       3       1       2       2       0       5       2      13       2       3
       2       1       2       3       2       4      14       3      10      10       3
       1       3       2       1       1      16       9      12      13      12       2
       3       2       1       2       2       7      14       7       4       0       3
       1       1       1       1       2       9       8       1       4       5       3
       1       1       3       2       2       4       5       5      14      11       2
       1       2       3       2       2       5       1       7       2       5       3
       1       3       1       2       3       8      14       6      14      14       2
       1       1       3       3       1      11       2      13       5      16       2
       3       3       1       1       1       4      10       8       5       2       3
       1       3       3       3       1       6      10      13       3       3       3
       3       2       3       1       3       4      11       0      11       8       3
       3       1       2       1       1       2      12      10      11      13       3
       3       3       1       2       1       3      13      13       5      16       2
       3       1       3       1       1      11       7       0       0       9       2
       3       3       1       3       3      11       0      15      14       4       3
       1       1       1       3       3       9       2       8       5       9       2
       2       1       3       3       2      12      14       1       1      15       3
       3       1       3       3       3       1      12       5       4      13       2
       3       2       2       3       1       0      15       3       9       3       3
       1       2       3       1       1       1      14      16      16       3       3
       3       3       1       1       1       5       9      10       5       6       3
       1       2       1       3       1       6       4      14       4       2       3
       3       3       3       3       3       1      13       8       4       7       2
       3       2       1       1       2       5       7       2      15       2       2
       2       2       1       2       3      11      13       7       7       8       3
       3       3       1       1       3       5       0       6      14       0       3
       3       3       1       3       1      10       9       5       4      12       3
       3       2       1       3       2       6       3      16       2      15       3
       1       1       2       2       2       4      12       7      14      12       2
       2       3       2       3       3      12      15       1      15       4       2
       2       2       2       1       2       1       7      16       9      16       3
       2       3       3       1       3       3      16       1       4      13       2
       1       1       3       2       3       4       1      16       4       5       3
       1       1       2       3       2      16       4      14      10       3       2
       2       3       3       1       1      14      14       8      16       9       2
       3       2       1       1       1       7      16      14       4       6       2
       2       1       3       1       3      10      14      11       4      11       2
       2       1       1       1       1       6      13       0       7      15       3
       1       2       1       2       1       7       0      15       6       8       3
       3       3       2       3       3       4      10      16       3      10       2
       2       2       3       1       3      12      14      14       4       7       3
       2       1       1       1       1       6       7      10      13       6       2
       3       1       3       1       3       5       5       9       1      10       2
       3       3       1       3       1       3       2       3       8      10       2
       2       1       2       3       3       0       8       3       0      16       2
       3       1       1       3       2       3      13       1      12       6       2
       3       2       1       3       1       3       9       9       5       7       3
       2       1       3       2       1      16      10      10       6      13       2
       3       3       1       2       2       1       1       3      13      16       2
       2       2       1       3       3      15      10      10      15       9       3
       2       1       2       1       3      11      12       3       1       4       2
       2       1       2       1       1       5      13      15       4      12       2
       3       1       3       2       3       4      15       4       7       0       3
       1       2       1       3       1       6       2       0       8       1       3
       2       1       3       1       2      15      15      14      16      13       3
       1       2       3       2       1       5       1       3       2      16       2
       3       3       3       2       2       7      14       2      15       8       2
       3       2       2       3       2      11       6       3       5       6       2
       2       3       3       3       2       3       8      16       5      12       3
       1       1       2       2       1       8      15       1      12      14       3
       2       2       3       3       1       7      15       1      10      16       2
       3       2       1       2       2       5       3      11      12       1       2
       2       2       2       1       2      16      15       1      13      14       2
       1       2       1       3       2       1       2      12       4       9       2
       2       2       2       2       1       0      14      11      16      13       2
       1       3       2       2       1      10       2      13      10       4       3
       1       3       3       2       3      13      12       9      11      16       2
       1       2       3       1       2       9      12       9       9       0       2
       3       2       1       1       2       3      13      13       3      14       3
       2       2       3       3       2       9      12      15      15       5       3
       1       2       3       2       2       1      13       5      14       5       2
       3       1       3       3       2       9       4      14      12       1       2
       1       1       1       1       1       4      12       3       4      12       2
       3       3       2       1       2      15      15      10      15       3       3
       3       1       2       1       1      13      13      13       1       6       3
       2       3       2       1       3       4       0       6       9      15       3
       1       3       2       3       3       6       5      12      14      14       3
       1       2       3       1       1      16       2      11       7       2       2
       2       2       3       2       2      12       1       6      15       5       3
       2       2       2       3       2      11      10      16      13       1       3
       2       2       3       2       2       0      11      11      13       0       3
       3       1       1       3       3       9       4      14       6       0       3
       3       3       2       2       2       9      16       4       8      16       2
       2       2       2       1       1      13       6       7       2      10       3
      56      84      87      60      79
     117     165     171     118     147
     160     515     464     364     323