M+/results-log/S1-5-M+/S1-5-5-1-l-M+.log
CPXPARAM_Read_DataCheck                          1
Found incumbent of value 0.000000 after 0.00 sec. (0.02 ticks)
Tried aggregator 1 time.
MIP Presolve modified 1 coefficients.
Reduced MIP has 116 rows, 505 columns, and 2520 nonzeros.
Reduced MIP has 505 binaries, 0 generals, 0 SOSs, and 0 indicators.
Presolve time = 0.00 sec. (1.03 ticks)
Probing time = 0.00 sec. (1.00 ticks)
Tried aggregator 1 time.
Reduced MIP has 116 rows, 505 columns, and 2520 nonzeros.
Reduced MIP has 505 binaries, 0 generals, 0 SOSs, and 0 indicators.
Presolve time = 0.00 sec. (1.22 ticks)
Probing time = 0.01 sec. (0.99 ticks)
Clique table members: 697.
MIP emphasis: balance optimality and feasibility.
MIP search method: dynamic search.
Parallel mode: deterministic, using up to 4 threads.
Root relaxation solution time = 0.00 sec. (1.28 ticks)

        Nodes                                         Cuts/
   Node  Left     Objective  IInf  Best Integer    Best Bound    ItCnt     Gap

*     0+    0                            0.0000     3261.0000              --- 
      0     0     1404.7031     9        0.0000     1404.7031      191     --- 
      0     0      973.0619   178        0.0000     Cuts: 131      454     --- 
*     0+    0                          869.0000      973.0619            11.97%
      0     0      887.9127   151      869.0000     Cuts: 129      675    2.18%
*     0+    0                          882.0000      887.9127             0.67%
      0     0        cutoff            882.0000      882.0000      679    0.00%
Elapsed time = 0.06 sec. (51.88 ticks, tree = 0.01 MB, solutions = 3)

GUB cover cuts applied:  1
Clique cuts applied:  208
Cover cuts applied:  7
Mixed integer rounding cuts applied:  5

Root node processing (before b&c):
  Real time             =    0.06 sec. (51.92 ticks)
Parallel b&c, 4 threads:
  Real time             =    0.00 sec. (0.00 ticks)
  Sync time (average)   =    0.00 sec.
  Wait time (average)   =    0.00 sec.
                          ------------
Total (root+branch&cut) =    0.06 sec. (51.92 ticks)
